p wcnf 150 300 301 
1 1 62 0 
1 -130 -139 0 
1 31 -46 0 
1 82 95 0 
1 59 -110 0 
1 59 33 0 
1 -83 -130 0 
1 -78 -109 0 
1 116 30 0 
1 54 -113 0 
1 20 77 0 
1 -87 36 0 
1 -48 -144 0 
1 -139 26 0 
1 -50 96 0 
1 89 -128 0 
1 -49 121 0 
1 -117 -149 0 
1 -40 -38 0 
1 6 148 0 
1 -110 97 0 
1 -21 7 0 
1 76 -121 0 
1 69 40 0 
1 -118 133 0 
1 -56 61 0 
1 -135 64 0 
1 -3 -99 0 
1 -144 -93 0 
1 -27 149 0 
1 84 133 0 
1 141 -107 0 
1 -31 109 0 
1 -116 -128 0 
1 -117 92 0 
1 -90 53 0 
1 -137 130 0 
1 83 1 0 
1 2 -85 0 
1 73 142 0 
1 50 -12 0 
1 -17 81 0 
1 126 -2 0 
1 127 89 0 
1 88 64 0 
1 -150 -87 0 
1 55 20 0 
1 17 125 0 
1 -47 17 0 
1 37 23 0 
1 -68 10 0 
1 -12 22 0 
1 -90 66 0 
1 -53 123 0 
1 68 85 0 
1 -17 40 0 
1 133 -27 0 
1 -121 -29 0 
1 128 -24 0 
1 -126 -4 0 
1 85 -68 0 
1 -33 -117 0 
1 25 4 0 
1 -46 22 0 
1 110 -74 0 
1 -7 -17 0 
1 -122 -124 0 
1 57 39 0 
1 132 101 0 
1 97 19 0 
1 42 -125 0 
1 -82 142 0 
1 -136 -96 0 
1 113 76 0 
1 128 -102 0 
1 116 9 0 
1 22 137 0 
1 -39 127 0 
1 -36 -55 0 
1 -92 77 0 
1 -70 64 0 
1 76 -64 0 
1 -120 19 0 
1 79 23 0 
1 80 -130 0 
1 -99 29 0 
1 18 76 0 
1 -116 -74 0 
1 -101 -117 0 
1 -6 86 0 
1 87 -71 0 
1 -8 -120 0 
1 130 -57 0 
1 -124 121 0 
1 -120 116 0 
1 14 112 0 
1 131 -122 0 
1 8 -141 0 
1 -127 -129 0 
1 116 91 0 
1 5 -71 0 
1 58 126 0 
1 -144 38 0 
1 -122 108 0 
1 -86 -147 0 
1 112 92 0 
1 108 23 0 
1 48 -124 0 
1 -90 -29 0 
1 -145 -50 0 
1 37 -136 0 
1 -69 -38 0 
1 36 -81 0 
1 26 55 0 
1 -49 -66 0 
1 -41 -126 0 
1 -120 75 0 
1 -2 -88 0 
1 -77 4 0 
1 66 35 0 
1 -55 -134 0 
1 55 -53 0 
1 57 42 0 
1 -123 -24 0 
1 -26 -128 0 
1 -53 -69 0 
1 95 42 0 
1 -69 -139 0 
1 135 80 0 
1 -61 19 0 
1 20 -46 0 
1 66 -102 0 
1 63 -132 0 
1 100 -33 0 
1 94 -69 0 
1 17 69 0 
1 22 96 0 
1 -70 62 0 
1 -40 11 0 
1 118 46 0 
1 141 -70 0 
1 -48 36 0 
1 79 -135 0 
1 111 -105 0 
1 148 -123 0 
1 -96 -90 0 
1 -14 36 0 
1 3 138 0 
1 -11 24 0 
1 143 -25 0 
1 -7 77 0 
1 125 -71 0 
1 -88 7 0 
1 75 8 0 
1 13 21 0 
1 94 139 0 
1 -104 141 0 
1 45 -14 0 
1 -97 24 0 
1 -31 -130 0 
1 -53 -1 0 
1 -32 115 0 
1 -104 -129 0 
1 -94 -121 0 
1 34 -143 0 
1 142 57 0 
1 34 -147 0 
1 -18 -9 0 
1 6 21 0 
1 142 20 0 
1 73 -62 0 
1 -147 106 0 
1 116 -64 0 
1 -106 113 0 
1 -70 23 0 
1 -33 32 0 
1 71 -28 0 
1 48 30 0 
1 -81 91 0 
1 103 86 0 
1 -135 -41 0 
1 142 -101 0 
1 -139 66 0 
1 148 14 0 
1 93 67 0 
1 68 -150 0 
1 -99 -121 0 
1 -150 -81 0 
1 53 87 0 
1 -59 134 0 
1 9 113 0 
1 -91 -103 0 
1 88 5 0 
1 149 145 0 
1 -141 -14 0 
1 96 97 0 
1 -15 -69 0 
1 9 68 0 
1 -106 -47 0 
1 101 44 0 
1 119 -114 0 
1 17 -131 0 
1 -19 -34 0 
1 -133 146 0 
1 -67 108 0 
1 43 -76 0 
1 62 -23 0 
1 -83 140 0 
1 -60 -47 0 
1 131 28 0 
1 -117 -32 0 
1 45 114 0 
1 -127 -41 0 
1 -51 6 0 
1 139 -93 0 
1 -96 -35 0 
1 -46 101 0 
1 126 41 0 
1 99 149 0 
1 147 17 0 
1 57 -36 0 
1 118 28 0 
1 140 -96 0 
1 -66 81 0 
1 144 -115 0 
1 138 -141 0 
1 81 63 0 
1 -14 49 0 
1 -3 138 0 
1 80 148 0 
1 -89 76 0 
1 -54 -57 0 
1 124 107 0 
1 -23 -146 0 
1 -83 -64 0 
1 38 135 0 
1 -16 -40 0 
1 72 -34 0 
1 -52 66 0 
1 80 41 0 
1 -83 -2 0 
1 -14 -145 0 
1 -83 9 0 
1 -66 -46 0 
1 -117 100 0 
1 136 150 0 
1 -56 -69 0 
1 -122 22 0 
1 -59 -93 0 
1 28 -1 0 
1 142 -24 0 
1 146 105 0 
1 29 70 0 
1 -131 148 0 
1 -150 27 0 
1 76 -5 0 
1 150 51 0 
1 72 -80 0 
1 148 -12 0 
1 -1 -95 0 
1 48 -13 0 
1 64 -88 0 
1 42 115 0 
1 -7 96 0 
1 -1 -112 0 
1 -62 74 0 
1 -90 -10 0 
1 149 -138 0 
1 -44 59 0 
1 54 38 0 
1 12 -96 0 
1 -107 -122 0 
1 135 -69 0 
1 78 17 0 
1 105 10 0 
1 54 38 0 
1 -142 47 0 
1 133 148 0 
1 138 147 0 
1 -71 -62 0 
1 1 111 0 
1 35 -74 0 
1 -80 122 0 
1 71 9 0 
1 -45 -52 0 
1 115 -89 0 
1 131 68 0 
1 108 -115 0 
1 143 17 0 
1 9 1 0 
1 -10 1 0 
1 -62 -33 0 
1 132 -11 0 
1 -30 94 0 
1 -21 90 0 
1 92 -111 0 
1 108 -4 0 
1 -11 -84 0 
1 -17 -97 0 
1 -106 43 0 
